solving instance uflp nlass holmberg 35 sincos
Couenne 0.5.8 -- an Open-Source solver for Mixed Integer Nonlinear Optimization
Mailing list: couenne@list.coin-or.org
Instructions: http://www.coin-or.org/Couenne
couenne: 
ANALYSIS TEST: Reading problem: 0.1 seconds
Reformulating problem: 130.6 seconds
NLP0012I 
              Num      Status      Obj             It       time                 Location
NLP0014I             1      FAILED 13264.368     3000 1260.4282
NLP0014I             1      FAILED 13264.368     3000 1247.535   resolve robustness
NLP3006W Warning : continuing branching, while there are unrecovered failures at nodes
Loaded instance "/tmp/jl_fB1CDh/model.nl"
Constraints:        13650
Variables:          13530 (4530 integer)
Auxiliaries:        31650 (0 integer)

Coin0506I Presolve 45150 (-22501) rows, 22530 (-22650) columns and 121216 (-36464) elements
Clp0006I 0  Obj 0 Primal inf 649065.22 (9292) Dual inf 1.0687376e+13 (18001)
Clp0006I 450  Obj 119794.14 Primal inf 587794.64 (9279) Dual inf 2.353732e+13 (17580)
Clp0006I 900  Obj 246361.27 Primal inf 526524.06 (9264) Dual inf 3.6484949e+13 (17130)
Clp0006I 1350  Obj 382553.88 Primal inf 465253.7 (9249) Dual inf 4.9606606e+13 (16680)
Clp0006I 1800  Obj 514626.89 Primal inf 403983.23 (9234) Dual inf 6.2640981e+13 (16230)
Clp0006I 2250  Obj 678856.81 Primal inf 342713.45 (9221) Dual inf 7.604952e+13 (15780)
Clp0006I 2700  Obj 827341.19 Primal inf 281443.44 (9208) Dual inf 8.928963e+13 (15330)
Clp0006I 3150  Obj 938899.11 Primal inf 220172.59 (9193) Dual inf 1.0203643e+14 (14880)
Clp0006I 3600  Obj 1087311.5 Primal inf 158902.45 (9178) Dual inf 1.1529493e+14 (14430)
Clp0006I 4050  Obj 1195137.6 Primal inf 97631.498 (9164) Dual inf 1.2793169e+14 (13980)
Clp0006I 4500  Obj 1370591.8 Primal inf 36361.963 (9150) Dual inf 1.4156066e+14 (13530)
Clp0006I 4950  Obj 1357298.5 Primal inf 35091.945 (8850) Dual inf 1.3693766e+14 (13079)
Clp0006I 5400  Obj 1293275.2 Primal inf 33820.005 (8550) Dual inf 1.3218763e+14 (12628)
Clp0006I 5850  Obj 1271493.5 Primal inf 32549.552 (8250) Dual inf 1.2754081e+14 (12177)
Clp0006I 6300  Obj 1226221.5 Primal inf 31278.112 (7950) Dual inf 1.2288216e+14 (11726)
Clp0006I 6750  Obj 1188451 Primal inf 30006.911 (7650) Dual inf 1.1825361e+14 (11275)
Clp0006I 7200  Obj 1164380.4 Primal inf 28736.287 (7350) Dual inf 1.136864e+14 (10824)
Clp0006I 7650  Obj 1096305.9 Primal inf 27464.27 (7050) Dual inf 1.0890734e+14 (10373)
Clp0006I 8100  Obj 1077529.1 Primal inf 26193.994 (6750) Dual inf 1.0423057e+14 (9922)
Clp0006I 8550  Obj 1042522.7 Primal inf 24922.969 (6450) Dual inf 9.9582031e+13 (9471)
Clp0006I 9000  Obj 997245.31 Primal inf 23651.566 (6150) Dual inf 9.4893395e+13 (9020)
Clp0006I 9450  Obj 887781.7 Primal inf 22378.712 (5850) Dual inf 8.9934416e+13 (8569)
Clp0006I 9900  Obj 870741.24 Primal inf 21108.429 (5550) Dual inf 8.5344742e+13 (8118)
Clp0006I 10350  Obj 774110.61 Primal inf 19835.809 (5250) Dual inf 8.0442309e+13 (7667)
Clp0006I 10800  Obj 724869.04 Primal inf 18564.305 (4950) Dual inf 7.574812e+13 (7216)
Clp0006I 11250  Obj 702847.02 Primal inf 17293.858 (4650) Dual inf 7.111756e+13 (6765)
Clp0006I 11700  Obj 639333.07 Primal inf 16021.953 (4350) Dual inf 6.634141e+13 (6314)
Clp0006I 12150  Obj 576294.29 Primal inf 14750.047 (4050) Dual inf 6.1593173e+13 (5863)
Clp0006I 12600  Obj 563201.14 Primal inf 13480.131 (3750) Dual inf 5.6899549e+13 (5412)
Clp0006I 13050  Obj 490876 Primal inf 12208.002 (3450) Dual inf 5.2104595e+13 (4961)
Clp0006I 13500  Obj 462542.26 Primal inf 10937.185 (3000) Dual inf 4.7708151e+13 (7510)
Clp0006I 13950  Obj 430479.81 Primal inf 9856.2982 (2850) Dual inf 4.8240087e+13 (10210)
Clp0006I 14400  Obj 371929.69 Primal inf 8775.867 (2550) Dual inf 4.360943e+13 (9909)
Clp0006I 14850  Obj 323365.18 Primal inf 7695.0309 (2400) Dual inf 4.3584463e+13 (9759)
Clp0006I 15300  Obj 245245.16 Primal inf 6614.3511 (2100) Dual inf 3.8864237e+13 (9458)
Clp0006I 15750  Obj 212575.18 Primal inf 5533.0789 (1950) Dual inf 3.8732546e+13 (9308)
Clp0006I 16200  Obj 180139.49 Primal inf 4451.5106 (1650) Dual inf 3.4031913e+13 (9007)
Clp0006I 16650  Obj 115475.32 Primal inf 3371.7895 (1500) Dual inf 3.4166095e+13 (8857)
Clp0006I 17100  Obj 64757.36 Primal inf 2288.3022 (1200) Dual inf 2.9151588e+13 (8556)
Clp0006I 17550  Obj 16555.927 Primal inf 1207.8046 (1050) Dual inf 2.915198e+13 (8256)
Clp0006I 18000  Obj -11729.79 Primal inf 131.65117 (900) Dual inf 3.6192369e+13 (8106)
Clp0006I 18450  Obj -19427.935 Dual inf 2278678.3 (4958)
Clp0006I 18900  Obj -25195.295 Dual inf 1226840.7 (3435)
Clp0006I 19350  Obj -32395.565 Dual inf 1849394.8 (2015)
Clp0006I 19800  Obj -41155.201 Dual inf 3157947.1 (1597)
Clp0006I 20250  Obj -41234.807 Dual inf 8947640.9 (1564)
Clp0006I 20690  Obj -53063.258 Dual inf 5287355.7 (1642)
Clp0006I 21075  Obj -60909.213 Dual inf 8297891.4 (1809)
Clp0006I 21449  Obj -65885.631 Dual inf 1964412.6 (1710)
Clp0006I 21899  Obj -67638.526 Dual inf 4470124 (1683)
Clp0006I 22349  Obj -68522.534 Dual inf 10511787 (1808)
Clp0006I 22763  Obj -71334.369 Dual inf 14718929 (1877)
Clp0006I 23213  Obj -73927.18 Dual inf 3759944.8 (1963)
Clp0006I 23660  Obj -76646.475 Dual inf 862064.33 (1831)
Clp0006I 24110  Obj -77485.103 Dual inf 248895.24 (1746)
Clp0006I 24560  Obj -78161.778 Dual inf 324914.58 (1316)
Clp0006I 25010  Obj -78572.498 Dual inf 168963.88 (1216)
Clp0006I 25460  Obj -79352.841 Dual inf 24788.53 (585)
Clp0006I 25910  Obj -79797.355 Dual inf 132.12886 (66)
Clp0006I 25970  Obj -79799.762
Clp0000I Optimal - objective value -79799.762
Clp0000I Optimal - objective value -79799.757
Clp0032I Optimal objective -79799.75683 - 25970 iterations time 12.662, Presolve 0.27
Clp0000I Optimal - objective value -79799.757
NLP Heuristic: NLP0014I             3        TIME 0        1 0.307443
no solution.
Clp0000I Optimal - objective value -79799.757
Cbc0020I Exiting on maximum time
Cbc0005I Partial search - best objective 1e+50 (best possible -79799.757), took 0 iterations and 0 nodes (927.00 seconds)
Cbc0035I Maximum depth 0, 0 variables fixed on reduced cost

 	"Not finished"

Linearization cuts added at root node:      67651
Linearization cuts added in total:          67651  (separation time: 2.73796s)
Total solve time:                         939.685s (939.685s in branch-and-bound)
Lower bound:                             -79799.8
Upper bound:                                  inf  (gap: --)
Branch-and-bound nodes:                         0
Stats: /tmp/jl_fB1CDh/model.nl 13530 [var] 4530 [int] 13650 [con] 31650 [aux]  67651 [root]    67651 [tot] 2.73796 [sep]  939.685 [time]  939.775 [bb]        -7.979976e+04 [lower]         1.000000e+50 [upper]       0 [nodes]
Performance of                           FBBT:	    3.96969s,        3 runs. fix:          0 shrnk:    1500.33 ubd:          0 2ubd:          0 infeas:          0
ERROR: LoadError: MathOptInterface.GetAttributeNotAllowed{MathOptInterface.ObjectiveBound}: Getting attribute MathOptInterface.ObjectiveBound() cannot be performed: AmplNLWriter.Optimizer does not support getting the attribute MathOptInterface.ObjectiveBound(). You may want to use a `CachingOptimizer` in `AUTOMATIC` mode or you may need to call `reset_optimizer` before doing this operation if the `CachingOptimizer` is in `MANUAL` mode.
Stacktrace:
  [1] get_fallback(model::AmplNLWriter.Optimizer, attr::MathOptInterface.ObjectiveBound)
    @ MathOptInterface ~/.julia/packages/MathOptInterface/gLl4d/src/attributes.jl:409
  [2] get(::AmplNLWriter.Optimizer, ::MathOptInterface.ObjectiveBound)
    @ MathOptInterface ~/.julia/packages/MathOptInterface/gLl4d/src/attributes.jl:390
  [3] _get_model_attribute(model::MathOptInterface.Utilities.CachingOptimizer{AmplNLWriter.Optimizer, MathOptInterface.Utilities.UniversalFallback{MathOptInterface.Utilities.Model{Float64}}}, attr::MathOptInterface.ObjectiveBound)
    @ MathOptInterface.Utilities ~/.julia/packages/MathOptInterface/gLl4d/src/Utilities/cachingoptimizer.jl:865
  [4] get(model::MathOptInterface.Utilities.CachingOptimizer{AmplNLWriter.Optimizer, MathOptInterface.Utilities.UniversalFallback{MathOptInterface.Utilities.Model{Float64}}}, attr::MathOptInterface.ObjectiveBound)
    @ MathOptInterface.Utilities ~/.julia/packages/MathOptInterface/gLl4d/src/Utilities/cachingoptimizer.jl:900
  [5] get(b::MathOptInterface.Bridges.LazyBridgeOptimizer{MathOptInterface.Utilities.CachingOptimizer{AmplNLWriter.Optimizer, MathOptInterface.Utilities.UniversalFallback{MathOptInterface.Utilities.Model{Float64}}}}, attr::MathOptInterface.ObjectiveBound)
    @ MathOptInterface.Bridges ~/.julia/packages/MathOptInterface/gLl4d/src/Bridges/bridge_optimizer.jl:889
  [6] _get_model_attribute(model::MathOptInterface.Utilities.CachingOptimizer{MathOptInterface.Bridges.LazyBridgeOptimizer{MathOptInterface.Utilities.CachingOptimizer{AmplNLWriter.Optimizer, MathOptInterface.Utilities.UniversalFallback{MathOptInterface.Utilities.Model{Float64}}}}, MathOptInterface.Utilities.UniversalFallback{MathOptInterface.Utilities.Model{Float64}}}, attr::MathOptInterface.ObjectiveBound)
    @ MathOptInterface.Utilities ~/.julia/packages/MathOptInterface/gLl4d/src/Utilities/cachingoptimizer.jl:865
  [7] get(model::MathOptInterface.Utilities.CachingOptimizer{MathOptInterface.Bridges.LazyBridgeOptimizer{MathOptInterface.Utilities.CachingOptimizer{AmplNLWriter.Optimizer, MathOptInterface.Utilities.UniversalFallback{MathOptInterface.Utilities.Model{Float64}}}}, MathOptInterface.Utilities.UniversalFallback{MathOptInterface.Utilities.Model{Float64}}}, attr::MathOptInterface.ObjectiveBound)
    @ MathOptInterface.Utilities ~/.julia/packages/MathOptInterface/gLl4d/src/Utilities/cachingoptimizer.jl:900
  [8] _moi_get_result(model::MathOptInterface.Utilities.CachingOptimizer{MathOptInterface.Bridges.LazyBridgeOptimizer{MathOptInterface.Utilities.CachingOptimizer{AmplNLWriter.Optimizer, MathOptInterface.Utilities.UniversalFallback{MathOptInterface.Utilities.Model{Float64}}}}, MathOptInterface.Utilities.UniversalFallback{MathOptInterface.Utilities.Model{Float64}}}, args::MathOptInterface.ObjectiveBound)
    @ JuMP ~/.julia/packages/JuMP/i68GU/src/optimizer_interface.jl:1053
  [9] get(model::JuMP.Model, attr::MathOptInterface.ObjectiveBound)
    @ JuMP ~/.julia/packages/JuMP/i68GU/src/optimizer_interface.jl:1073
 [10] objective_bound(model::JuMP.Model)
    @ JuMP ~/.julia/packages/JuMP/i68GU/src/objective.jl:78
 [11] nl_uflp_nlass(filename::String, cost::Symbol, solver::AmplNLWriter.Optimizer, solver_params::Vector{Any}; solve::Bool, write_nl::Bool, with_cap_constraint::Bool)
    @ IterativePWLB ~/git/ipwlb/code/sources/IterativePWLB/src/nlsolver.jl:885
 [12] top-level scope
    @ ~/git/ipwlb/code/sources/IterativePWLB/test/couenne/uflp_nlass/script.jl:14
in expression starting at /home/ccontard/git/ipwlb/code/sources/IterativePWLB/test/couenne/uflp_nlass/script.jl:14
reading holmberg data file /home/ccontard/git/ipwlb/code/instances/uflp/holmberg/p35
